2023/11/29
gurobi is now 11.0.0
previous version was 10.0.3
solving instance knapsack 500 4 exp
Couenne 0.5.8 -- an Open-Source solver for Mixed Integer Nonlinear Optimization
Mailing list: couenne@list.coin-or.org
Instructions: http://www.coin-or.org/Couenne
couenne: 
ANALYSIS TEST: Reformulating problem: Couenne: new cutoff value 0.0000000000e+00 (0.387494 seconds)
0.4 seconds
NLP0012I 
              Num      Status      Obj             It       time                 Location
NLP0014I             1      FAILED -32639.318     3000 62.978278
NLP0014I             1      FAILED -32639.318     3000 63.690181   resolve robustness
NLP3006W Warning : continuing branching, while there are unrecovered failures at nodes
Loaded instance "/tmp/jl_6HJPT6/model.nl"
Constraints:         1501
Variables:           1500 (500 integer)
Auxiliaries:         3502 (0 integer)

Coin0506I Presolve 7500 (-2002) rows, 2499 (-2503) columns and 16497 (-4504) elements
Clp0006I 0  Obj -36652.218 Primal inf 46549.174 (5999)
Clp0006I 225  Obj -36652.218 Primal inf 35122.944 (5765)
Clp0006I 450  Obj -36652.218 Primal inf 29961.26 (5508)
Clp0006I 675  Obj -36652.218 Primal inf 22126.774 (5222)
Clp0006I 900  Obj -36652.218 Primal inf 18789.396 (4968)
Clp0006I 1125  Obj -36652.218 Primal inf 16754.72 (4484)
Clp0006I 1350  Obj -36652.218 Primal inf 14712.562 (4000)
Clp0006I 1575  Obj -36652.218 Primal inf 13545.174 (3530)
Clp0006I 1800  Obj -36652.218 Primal inf 11013.982 (2888)
Clp0006I 2025  Obj -36652.218 Primal inf 8608.4112 (2136)
Clp0006I 2250  Obj -36652.218 Primal inf 15051.743 (1581)
Clp0006I 2475  Obj -36652.218 Primal inf 3095.1774 (966)
Clp0006I 2700  Obj -36652.218 Primal inf 16108.476 (858)
Clp0006I 2925  Obj -36652.218 Primal inf 19202.515 (948)
Clp0006I 3150  Obj -36652.218 Primal inf 2985.7822 (1084)
Clp0006I 3375  Obj -36652.218 Primal inf 3881.3064 (1287)
Clp0006I 3600  Obj -36652.218 Primal inf 2932.7391 (1467)
Clp0006I 3825  Obj -36652.218 Primal inf 2421.8199 (1355)
Clp0006I 4050  Obj -36652.218 Primal inf 1913.1586 (1243)
Clp0006I 4239  Obj -36652.218 Primal inf 2933.6383 (1162)
Clp0006I 4464  Obj -36625.353 Primal inf 462.06711 (678)
Clp0006I 4689  Obj -36606.33 Primal inf 520.80353 (297)
Clp0006I 4878  Obj -36603.668
Clp0000I Optimal - objective value -36603.668
Clp0032I Optimal objective -36603.66806 - 4878 iterations time 0.422, Presolve 0.02
Clp0000I Optimal - objective value -36603.668
NLP Heuristic: NLP0014I             3         OPT -34316.418       94 2.165638
no solution.
Clp0000I Optimal - objective value -36603.668
Optimality Based BT: 500 improved bounds
Probing: 0 improved bounds
NLP Heuristic: no solution.
Cbc0031I 981 added rows had average density of 2
Cbc0013I At root node, 981 cuts changed objective from -36603.668 to -36571.696 in 20 passes
Cbc0014I Cut generator 0 (Couenne convexifier cuts) - 6098 row cuts average 2.0 elements, 21 column cuts (919 active)
Cbc0010I After 0 nodes, 1 on tree, 1e+50 best solution, best possible -1.7976931e+308 (277.15 seconds)
Optimality Based BT: 499 improved bounds
Optimality Based BT: 499 improved bounds
Optimality Based BT: 500 improved bounds
Optimality Based BT: 500 improved bounds
Optimality Based BT: 500 improved bounds
Cbc0010I After 100 nodes, 50 on tree, 1e+50 best solution, best possible -36570.892 (1998.03 seconds)
Cbc0010I After 200 nodes, 100 on tree, 1e+50 best solution, best possible -36570.892 (2028.08 seconds)
Cbc0010I After 300 nodes, 150 on tree, 1e+50 best solution, best possible -36570.892 (2058.46 seconds)
Cbc0010I After 400 nodes, 200 on tree, 1e+50 best solution, best possible -36570.892 (2089.97 seconds)
Cbc0010I After 500 nodes, 250 on tree, 1e+50 best solution, best possible -36570.892 (2122.63 seconds)
Cbc0010I After 600 nodes, 300 on tree, 1e+50 best solution, best possible -36570.892 (2155.73 seconds)
Cbc0010I After 700 nodes, 350 on tree, 1e+50 best solution, best possible -36570.892 (2188.99 seconds)
Cbc0010I After 800 nodes, 400 on tree, 1e+50 best solution, best possible -36570.892 (2222.74 seconds)
Cbc0010I After 900 nodes, 450 on tree, 1e+50 best solution, best possible -36570.892 (2256.76 seconds)
Cbc0010I After 1000 nodes, 500 on tree, 1e+50 best solution, best possible -36570.892 (2291.75 seconds)
Cbc0010I After 1100 nodes, 550 on tree, 1e+50 best solution, best possible -36570.892 (2327.00 seconds)
Cbc0010I After 1200 nodes, 600 on tree, 1e+50 best solution, best possible -36570.892 (2362.51 seconds)
Cbc0010I After 1300 nodes, 650 on tree, 1e+50 best solution, best possible -36570.892 (2398.64 seconds)
Cbc0010I After 1400 nodes, 700 on tree, 1e+50 best solution, best possible -36570.892 (2435.56 seconds)
Cbc0010I After 1500 nodes, 750 on tree, 1e+50 best solution, best possible -36570.892 (2473.03 seconds)
Cbc0010I After 1600 nodes, 800 on tree, 1e+50 best solution, best possible -36570.892 (2510.68 seconds)
Cbc0010I After 1700 nodes, 850 on tree, 1e+50 best solution, best possible -36570.892 (2548.47 seconds)
Cbc0010I After 1800 nodes, 900 on tree, 1e+50 best solution, best possible -36570.892 (2586.81 seconds)
Cbc0010I After 1900 nodes, 950 on tree, 1e+50 best solution, best possible -36570.892 (2625.10 seconds)
Cbc0010I After 2000 nodes, 1000 on tree, 1e+50 best solution, best possible -36570.892 (2664.18 seconds)
Cbc0010I After 2100 nodes, 1050 on tree, 1e+50 best solution, best possible -36570.892 (2703.62 seconds)
Cbc0010I After 2200 nodes, 1100 on tree, 1e+50 best solution, best possible -36570.892 (2743.10 seconds)
Cbc0010I After 2300 nodes, 1150 on tree, 1e+50 best solution, best possible -36570.892 (2783.13 seconds)
Cbc0010I After 2400 nodes, 1200 on tree, 1e+50 best solution, best possible -36570.892 (2823.58 seconds)
Cbc0010I After 2500 nodes, 1250 on tree, 1e+50 best solution, best possible -36570.892 (2864.46 seconds)
Cbc0010I After 2600 nodes, 1300 on tree, 1e+50 best solution, best possible -36570.892 (2905.98 seconds)
Cbc0010I After 2700 nodes, 1350 on tree, 1e+50 best solution, best possible -36570.892 (2948.21 seconds)
Cbc0010I After 2800 nodes, 1400 on tree, 1e+50 best solution, best possible -36570.892 (2990.62 seconds)
Cbc0010I After 2900 nodes, 1450 on tree, 1e+50 best solution, best possible -36570.892 (3033.63 seconds)
Cbc0010I After 3000 nodes, 1500 on tree, 1e+50 best solution, best possible -36570.892 (3077.26 seconds)
Cbc0010I After 3100 nodes, 1550 on tree, 1e+50 best solution, best possible -36570.892 (3121.34 seconds)
Cbc0010I After 3200 nodes, 1600 on tree, 1e+50 best solution, best possible -36570.892 (3165.63 seconds)
Cbc0010I After 3300 nodes, 1650 on tree, 1e+50 best solution, best possible -36570.892 (3210.36 seconds)
Cbc0010I After 3400 nodes, 1700 on tree, 1e+50 best solution, best possible -36570.892 (3255.53 seconds)
Cbc0010I After 3500 nodes, 1750 on tree, 1e+50 best solution, best possible -36570.892 (3301.16 seconds)
Cbc0010I After 3600 nodes, 1800 on tree, 1e+50 best solution, best possible -36570.892 (3347.36 seconds)
Cbc0010I After 3700 nodes, 1850 on tree, 1e+50 best solution, best possible -36570.892 (3393.83 seconds)
Cbc0010I After 3800 nodes, 1900 on tree, 1e+50 best solution, best possible -36570.892 (3440.83 seconds)
Cbc0020I Exiting on maximum time
Cbc0005I Partial search - best objective 1e+50 (best possible -36570.892), took 2712241 iterations and 3866 nodes (3516.36 seconds)
Cbc0035I Maximum depth 1933, 0 variables fixed on reduced cost

 	"Not finished"

Linearization cuts added at root node:       9502
Linearization cuts added in total:           9502  (separation time: 0.068897s)
Total solve time:                         3518.01s (3518.01s in branch-and-bound)
Lower bound:                             -36570.9
Upper bound:                                    0  (gap: 100.00%)
Branch-and-bound nodes:                      3866
Stats: /tmp/jl_6HJPT6/model.nl 1500 [var]  500 [int] 1501 [con] 3502 [aux]   9502 [root]     9502 [tot] 0.068897 [sep]  3518.01 [time]  3518.02 [bb]        -3.657089e+04 [lower]         0.000000e+00 [upper]    3866 [nodes]
Performance of                           FBBT:	    186.042s,     7759 runs. fix:          0 shrnk:    292.342 ubd:          0 2ubd:          1 infeas:          0
Performance of                           OBBT:	    390.505s,        6 runs. fix:          0 shrnk:   0.324183 ubd:          0 2ubd:          1 infeas:          0
primal_bound = 0.0, dual_bound = 0.0, gap = NaN, time = 3674.37
